c "953277.clq"
p edge 150 584
e 1 5
e 2 5
e 2 6
e 2 7
e 2 9
e 2 15
e 2 25
e 2 31
e 2 42
e 2 49
e 2 63
e 2 76
e 2 83
e 2 106
e 2 127
e 2 136
e 2 145
e 2 146
e 2 149
e 3 5
e 3 6
e 3 7
e 3 9
e 3 18
e 3 25
e 3 31
e 3 36
e 3 39
e 3 45
e 3 53
e 3 58
e 3 66
e 3 69
e 3 84
e 3 93
e 3 109
e 3 114
e 3 139
e 3 149
e 4 5
e 4 6
e 4 7
e 4 8
e 4 10
e 4 12
e 4 14
e 4 16
e 4 18
e 4 21
e 4 24
e 4 26
e 4 28
e 4 29
e 4 30
e 4 33
e 4 34
e 4 35
e 4 42
e 4 47
e 4 49
e 4 54
e 4 73
e 4 91
e 4 92
e 4 94
e 4 95
e 4 97
e 4 101
e 4 111
e 4 114
e 4 116
e 4 143
e 5 6
e 5 8
e 5 9
e 5 10
e 5 11
e 5 12
e 5 13
e 5 16
e 5 18
e 5 19
e 5 20
e 5 22
e 5 24
e 5 26
e 5 32
e 5 33
e 5 37
e 5 39
e 5 40
e 5 48
e 5 55
e 5 56
e 5 60
e 5 63
e 5 70
e 5 77
e 5 79
e 5 80
e 5 84
e 5 87
e 5 90
e 5 95
e 5 97
e 5 98
e 5 112
e 5 119
e 5 125
e 5 137
e 6 7
e 6 8
e 6 10
e 6 12
e 6 13
e 6 17
e 6 25
e 6 29
e 6 30
e 6 35
e 6 44
e 6 48
e 6 51
e 6 53
e 6 60
e 6 72
e 6 77
e 6 80
e 6 81
e 6 83
e 6 84
e 6 86
e 6 87
e 6 88
e 6 97
e 6 98
e 6 101
e 6 106
e 6 125
e 6 130
e 6 136
e 7 8
e 7 11
e 7 13
e 7 14
e 7 18
e 7 19
e 7 20
e 7 21
e 7 23
e 7 31
e 7 34
e 7 36
e 7 38
e 7 39
e 7 41
e 7 45
e 7 46
e 7 52
e 7 57
e 7 61
e 7 64
e 7 65
e 7 66
e 7 72
e 7 90
e 7 93
e 7 108
e 7 111
e 7 123
e 7 130
e 7 133
e 8 9
e 8 10
e 8 11
e 8 14
e 8 16
e 8 19
e 8 28
e 8 32
e 8 39
e 8 43
e 8 45
e 8 52
e 8 78
e 8 88
e 8 110
e 8 138
e 9 11
e 9 12
e 9 15
e 9 17
e 9 19
e 9 24
e 9 30
e 9 32
e 9 45
e 9 50
e 9 51
e 9 56
e 9 66
e 9 111
e 9 120
e 9 121
e 9 124
e 9 149
e 10 13
e 10 15
e 10 44
e 10 59
e 10 71
e 10 75
e 10 81
e 10 85
e 10 105
e 10 108
e 10 115
e 10 124
e 10 128
e 10 140
e 10 143
e 11 23
e 11 24
e 11 27
e 11 35
e 11 50
e 11 61
e 11 62
e 11 63
e 11 67
e 11 75
e 11 81
e 11 83
e 11 89
e 11 94
e 11 101
e 11 122
e 11 126
e 11 132
e 11 139
e 12 20
e 12 23
e 12 46
e 12 48
e 12 91
e 12 96
e 12 100
e 13 14
e 13 15
e 13 16
e 13 17
e 13 33
e 13 34
e 13 38
e 13 40
e 13 47
e 13 50
e 13 60
e 13 62
e 13 65
e 13 69
e 13 100
e 13 112
e 13 113
e 13 122
e 13 131
e 13 136
e 13 140
e 13 147
e 14 20
e 14 21
e 14 27
e 14 71
e 14 74
e 14 150
e 15 28
e 15 40
e 15 42
e 15 93
e 15 102
e 16 17
e 16 22
e 16 25
e 16 36
e 16 37
e 16 41
e 16 44
e 16 59
e 16 82
e 16 102
e 16 129
e 16 135
e 17 21
e 17 49
e 17 115
e 17 133
e 18 22
e 18 33
e 18 43
e 18 52
e 18 55
e 18 72
e 18 103
e 18 115
e 18 116
e 18 132
e 18 133
e 18 134
e 18 150
e 19 32
e 19 64
e 19 94
e 19 138
e 20 23
e 20 37
e 20 38
e 20 46
e 20 54
e 20 62
e 20 64
e 20 74
e 20 76
e 20 103
e 20 107
e 20 129
e 20 138
e 21 22
e 21 27
e 21 41
e 21 42
e 21 58
e 21 63
e 21 68
e 21 118
e 22 29
e 22 43
e 22 56
e 22 59
e 22 70
e 22 74
e 22 77
e 22 83
e 22 85
e 22 87
e 22 95
e 22 107
e 22 118
e 22 119
e 22 123
e 22 127
e 23 26
e 23 27
e 23 34
e 23 37
e 23 50
e 23 52
e 23 57
e 23 68
e 23 75
e 23 89
e 23 91
e 23 110
e 23 111
e 23 112
e 23 113
e 23 129
e 23 141
e 24 40
e 24 88
e 25 26
e 25 109
e 25 122
e 26 29
e 26 30
e 26 31
e 26 46
e 26 47
e 27 28
e 27 44
e 27 65
e 27 67
e 28 82
e 28 86
e 28 90
e 28 131
e 28 143
e 29 35
e 29 55
e 29 56
e 30 76
e 30 99
e 30 130
e 30 147
e 31 66
e 31 90
e 31 126
e 31 144
e 32 36
e 32 105
e 33 120
e 33 131
e 34 69
e 34 79
e 34 96
e 34 99
e 34 113
e 34 125
e 35 47
e 35 48
e 35 49
e 35 51
e 35 54
e 35 71
e 35 94
e 35 117
e 35 128
e 35 144
e 36 38
e 36 139
e 37 53
e 37 57
e 37 68
e 37 76
e 37 103
e 37 106
e 37 146
e 38 41
e 38 85
e 38 89
e 38 92
e 38 137
e 39 58
e 39 68
e 39 69
e 39 98
e 39 108
e 39 116
e 39 143
e 40 51
e 40 54
e 40 60
e 40 128
e 41 43
e 41 64
e 41 95
e 41 127
e 42 58
e 42 74
e 42 79
e 43 59
e 43 118
e 43 122
e 43 134
e 43 144
e 44 65
e 44 78
e 44 118
e 45 55
e 46 62
e 46 67
e 46 109
e 46 114
e 46 121
e 47 67
e 47 70
e 47 80
e 47 101
e 47 117
e 48 53
e 48 80
e 48 82
e 48 99
e 48 116
e 50 70
e 50 96
e 51 93
e 51 113
e 51 134
e 52 121
e 53 57
e 53 75
e 53 78
e 54 61
e 54 110
e 54 130
e 54 148
e 55 104
e 55 117
e 55 132
e 56 73
e 56 134
e 56 141
e 57 97
e 58 61
e 58 77
e 58 82
e 58 102
e 58 146
e 59 79
e 59 86
e 59 121
e 59 131
e 59 148
e 60 73
e 60 96
e 60 102
e 60 140
e 61 71
e 61 85
e 61 98
e 61 126
e 62 72
e 62 87
e 65 107
e 67 120
e 67 141
e 68 105
e 69 124
e 69 139
e 70 126
e 70 135
e 71 117
e 71 132
e 72 73
e 72 92
e 72 103
e 72 124
e 72 148
e 73 133
e 73 149
e 74 91
e 75 78
e 75 89
e 75 92
e 75 120
e 76 88
e 76 100
e 76 104
e 77 104
e 78 86
e 78 109
e 78 119
e 80 81
e 80 100
e 80 107
e 80 137
e 81 84
e 81 99
e 81 135
e 81 150
e 83 123
e 84 127
e 84 128
e 85 137
e 85 146
e 91 119
e 91 142
e 92 142
e 93 145
e 94 105
e 95 110
e 95 135
e 95 142
e 100 108
e 100 115
e 100 141
e 101 104
e 102 106
e 102 125
e 105 114
e 106 123
e 108 112
e 108 129
e 108 136
e 108 138
e 115 140
e 117 145
e 121 144
e 121 147
e 126 147
e 128 150
e 130 148
e 131 142
e 141 145
